50
2141

622 324
708 814
632 594
694 938
239 948
550 270
227 598
697 448
799 998
674 432
490 584
662 462
809 707
838 60
979 489
192 687
449 757
114 712
556 311
648 585
936 29
152 772
241 967
344 235
919 345
172 567
69 692
431 637
259 58
518 883
139 628
591 364
614 241
75 826
456 482
456 763
756 87
319 18
593 770
173 449
781 542
97 351
564 96
86 143
874 637
730 855
167 130
173 274
65 454
224 374
